QPLIB_3089
LCQ
minimize
132 # number of variables
84 # number of constraints
0.0 # default value for linear coefficients in objective
12 # number of non-default linear coefficients in objective
1 1.0
2 1.0
3 1.0
4 1.0
5 1.0
6 1.0
7 1.0
8 1.0
9 1.0
10 1.0
11 1.0
12 1.0
0.0 # objective constant
324 # number of quadratic terms in all constraints
13 225188761 1 2.0
13 225188761 1 -2.0
13 225188761 1 -2.0
13 225188761 1 -2.0
13 225188761 1 -2.0
13 225188761 1 -2.0
13 225188761 1 -2.0
14 32714 1 2.0
14 32714 1 -2.0
14 32714 1 -2.0
14 32714 1 -2.0
14 32714 1 -2.0
14 32714 1 -2.0
14 32714 1 -2.0
15 225188761 1 2.0
15 225188761 1 -2.0
15 225188761 1 -2.0
15 225188761 1 -2.0
15 225188761 1 -2.0
15 225188761 1 -2.0
15 225188761 1 -2.0
16 32714 1 2.0
16 32714 1 -2.0
16 32714 1 -2.0
16 32714 1 -2.0
16 32714 1 -2.0
16 32714 1 -2.0
16 32714 1 -2.0
17 24723745 1 2.0
17 24723745 1 -2.0
17 24723745 1 -2.0
17 24723745 1 -2.0
17 24723745 1 -2.0
17 24723745 1 -2.0
17 24723745 1 -2.0
18 1 1 2.0
18 1 1 -2.0
18 1 1 -2.0
18 1 1 -2.0
18 1 1 -2.0
18 1 1 -2.0
18 1 1 -2.0
19 1970417268 1 2.0
19 1970417268 1 -2.0
19 1970417268 1 -2.0
19 1970417268 1 -2.0
19 1970417268 1 -2.0
19 1970417268 1 -2.0
19 1970417268 1 -2.0
20 32623 1 2.0
20 32623 1 -2.0
20 32623 1 -2.0
20 32623 1 -2.0
20 32623 1 -2.0
20 32623 1 -2.0
20 32623 1 -2.0
21 49 1 2.0
21 49 1 -2.0
21 49 1 -2.0
21 49 1 -2.0
21 49 1 -2.0
21 49 1 -2.0
21 49 1 -2.0
22 1 1 2.0
22 1 1 -2.0
22 1 1 -2.0
22 1 1 -2.0
22 1 1 -2.0
22 1 1 -2.0
22 1 1 -2.0
23 49 1 2.0
23 49 1 -2.0
23 49 1 -2.0
23 49 1 -2.0
23 49 1 -2.0
23 49 1 -2.0
23 49 1 -2.0
24 1 1 2.0
24 1 1 -2.0
24 1 1 -2.0
24 1 1 -2.0
24 1 1 -2.0
24 1 1 -2.0
24 1 1 -2.0
25 1651076121 1 2.0
25 1651076121 1 -2.0
25 1651076121 1 -2.0
25 1651076121 1 -2.0
25 1651076121 1 -2.0
25 1651076121 1 -2.0
25 1651076121 1 -2.0
26 1668574818 1 2.0
26 1668574818 1 -2.0
26 1668574818 1 -2.0
26 1668574818 1 -2.0
26 1668574818 1 -2.0
26 1668574818 1 -2.0
26 1668574818 1 -2.0
27 1651076196 1 2.0
27 1651076196 1 -2.0
27 1651076196 1 -2.0
27 1651076196 1 -2.0
27 1651076196 1 -2.0
27 1651076196 1 -2.0
27 1651076196 1 -2.0
28 1932407863 1 2.0
28 1932407863 1 -2.0
28 1932407863 1 -2.0
28 1932407863 1 -2.0
28 1932407863 1 -2.0
28 1932407863 1 -2.0
28 1932407863 1 -2.0
29 1851859056 1 2.0
29 1851859056 1 -2.0
29 1851859056 1 -2.0
29 1851859056 1 -2.0
29 1851859056 1 -2.0
29 1851859056 1 -2.0
29 1851859056 1 -2.0
30 540090485 1 2.0
30 540090485 1 -2.0
30 540090485 1 -2.0
30 540090485 1 -2.0
30 540090485 1 -2.0
30 540090485 1 -2.0
30 540090485 1 -2.0
31 49 1 2.0
31 49 1 -2.0
31 49 1 -2.0
31 49 1 -2.0
31 49 1 -2.0
31 49 1 -2.0
31 49 1 -2.0
32 1 1 2.0
32 1 1 -2.0
32 1 1 -2.0
32 1 1 -2.0
32 1 1 -2.0
32 1 1 -2.0
32 1 1 -2.0
33 1 1 2.0
33 1 1 -2.0
33 1 1 -2.0
33 1 1 -2.0
33 1 1 -2.0
33 1 1 -2.0
33 1 1 -2.0
34 1 1 2.0
34 1 1 -2.0
34 1 1 -2.0
34 1 1 -2.0
34 1 1 -2.0
34 1 1 -2.0
34 1 1 -2.0
35 50 1 2.0
35 50 1 -2.0
35 50 1 -2.0
35 50 1 -2.0
35 50 1 -2.0
35 50 1 -2.0
35 50 1 -2.0
36 1 1 2.0
36 1 1 -2.0
36 1 1 -2.0
36 1 1 -2.0
36 1 1 -2.0
36 1 1 -2.0
36 1 1 -2.0
37 1651076121 1 2.0
37 1651076121 1 -2.0
37 1651076121 1 -2.0
37 1651076121 1 -2.0
37 1651076121 1 -2.0
37 1651076121 1 -2.0
37 1651076121 1 -2.0
38 1668834403 1 2.0
38 1668834403 1 -2.0
38 1668834403 1 -2.0
38 1668834403 1 -2.0
38 1668834403 1 -2.0
38 1668834403 1 -2.0
38 1668834403 1 -2.0
39 1651076196 1 2.0
39 1651076196 1 -2.0
39 1651076196 1 -2.0
39 1651076196 1 -2.0
39 1651076196 1 -2.0
39 1651076196 1 -2.0
39 1651076196 1 -2.0
40 1932407863 1 2.0
40 1932407863 1 -2.0
40 1932407863 1 -2.0
40 1932407863 1 -2.0
40 1932407863 1 -2.0
40 1932407863 1 -2.0
40 1932407863 1 -2.0
41 1684152432 1 2.0
41 1684152432 1 -2.0
41 1684152432 1 -2.0
41 1684152432 1 -2.0
41 1684152432 1 -2.0
41 1684152432 1 -2.0
41 1684152432 1 -2.0
42 540156025 1 2.0
42 540156025 1 -2.0
42 540156025 1 -2.0
42 540156025 1 -2.0
42 540156025 1 -2.0
42 540156025 1 -2.0
42 540156025 1 -2.0
43 825303089 1 2.0
43 825303089 1 -2.0
43 825303089 1 -2.0
43 825303089 1 -2.0
43 825303089 1 -2.0
43 825303089 1 -2.0
43 825303089 1 -2.0
44 540024882 1 2.0
44 540024882 1 -2.0
44 540024882 1 -2.0
44 540024882 1 -2.0
44 540024882 1 -2.0
44 540024882 1 -2.0
44 540024882 1 -2.0
45 540024882 1 2.0
45 540024882 1 -2.0
45 540024882 1 -2.0
45 540024882 1 -2.0
45 540024882 1 -2.0
45 540024882 1 -2.0
45 540024882 1 -2.0
46 540024881 1 2.0
46 540024881 1 -2.0
46 540024881 1 -2.0
46 540024881 1 -2.0
46 540024881 1 -2.0
46 540024881 1 -2.0
46 540024881 1 -2.0
47 50 1 2.0
47 50 1 -2.0
47 50 1 -2.0
47 50 1 -2.0
47 50 1 -2.0
47 50 1 -2.0
47 50 1 -2.0
48 1 1 2.0
48 1 1 -2.0
48 1 1 -2.0
48 1 1 -2.0
48 1 1 -2.0
48 1 1 -2.0
48 1 1 -2.0
49 1651076122 1 2.0
49 1651076122 1 -2.0
50 1852403556 1 2.0
50 1852403556 1 -2.0
51 1768711012 1 2.0
51 1768711012 1 -2.0
52 775173731 1 2.0
52 775173731 1 -2.0
53 1646292852 1 2.0
53 1646292852 1 -2.0
54 824209008 1 2.0
54 824209008 1 -2.0
55 1853173793 1 2.0
55 1853173793 1 -2.0
56 1936549643 1 2.0
56 1936549643 1 -2.0
57 49 1 2.0
57 49 1 -2.0
58 1 1 2.0
58 1 1 -2.0
59 306 1 2.0
59 306 1 -2.0
60 1 1 2.0
60 1 1 -2.0
61 24699665 1 2.0
61 24699665 1 -2.0
62 1 1 2.0
62 1 1 -2.0
63 225189017 1 2.0
63 225189017 1 -2.0
64 32714 1 2.0
64 32714 1 -2.0
65 24698673 1 2.0
65 24698673 1 -2.0
66 1 1 2.0
66 1 1 -2.0
67 24698721 1 2.0
67 24698721 1 -2.0
68 1 1 2.0
68 1 1 -2.0
69 24699905 1 2.0
69 24699905 1 -2.0
70 1 1 2.0
70 1 1 -2.0
71 1 1 2.0
71 1 1 -2.0
72 23 1 2.0
72 23 1 -2.0
73 23 1 2.0
73 23 1 -2.0
74 23 1 2.0
74 23 1 -2.0
75 23 1 2.0
75 23 1 -2.0
76 23 1 2.0
76 23 1 -2.0
77 23 1 2.0
77 23 1 -2.0
78 23 1 2.0
78 23 1 -2.0
79 23 1 2.0
79 23 1 -2.0
80 23 1 2.0
80 23 1 -2.0
81 23 1 2.0
81 23 1 -2.0
82 23 1 2.0
82 23 1 -2.0
83 23 1 2.0
83 23 1 -2.0
84 23 1 2.0
84 23 1 -2.0
156 # number of linear terms in all constraints
1 1 -1.0
1 7 -1.0
1 85 1.0
1 86 -1.0
1 87 -1.0
1 88 -1.0
1 89 -1.0
1 90 -1.0
1 91 -1.0
2 2 -1.0
2 8 -1.0
2 92 1.0
2 93 -1.0
2 94 -1.0
2 95 -1.0
2 96 -1.0
2 97 -1.0
2 98 -1.0
3 3 -1.0
3 9 -1.0
3 99 1.0
3 100 -1.0
3 101 -1.0
3 102 -1.0
3 103 -1.0
3 104 -1.0
3 105 -1.0
4 4 -1.0
4 10 -1.0
4 106 1.0
4 107 -1.0
4 108 -1.0
4 109 -1.0
4 110 -1.0
4 111 -1.0
4 112 -1.0
5 5 -1.0
5 11 -1.0
5 113 1.0
5 114 -1.0
5 115 -1.0
5 116 -1.0
5 117 -1.0
5 118 -1.0
5 119 -1.0
6 6 -1.0
6 12 -1.0
6 120 1.0
6 121 -1.0
6 122 -1.0
6 123 -1.0
6 124 -1.0
6 125 -1.0
6 126 -1.0
7 85 1.0
7 86 -1.0
7 93 -1.0
7 100 -1.0
7 107 -1.0
7 114 -1.0
7 121 -1.0
7 127 -1.0
8 87 -1.0
8 92 1.0
8 94 -1.0
8 101 -1.0
8 108 -1.0
8 115 -1.0
8 122 -1.0
8 128 -1.0
9 88 -1.0
9 95 -1.0
9 99 1.0
9 102 -1.0
9 109 -1.0
9 116 -1.0
9 123 -1.0
9 129 -1.0
10 89 -1.0
10 96 -1.0
10 103 -1.0
10 106 1.0
10 110 -1.0
10 117 -1.0
10 124 -1.0
10 130 -1.0
11 90 -1.0
11 97 -1.0
11 104 -1.0
11 111 -1.0
11 113 1.0
11 118 -1.0
11 125 -1.0
11 131 -1.0
12 91 -1.0
12 98 -1.0
12 105 -1.0
12 112 -1.0
12 119 -1.0
12 120 1.0
12 126 -1.0
12 132 -1.0
13 1 -4.0
13 7 -4.0
14 1 -5.0
14 7 -6.0
15 7 -2.0
16 1 -8.0
16 7 -7.0
17 7 -2.0
18 1 -4.0
19 2 -4.0
19 8 -4.0
20 2 -5.0
20 8 -6.0
21 8 -2.0
22 2 -8.0
22 8 -7.0
23 8 -2.0
24 2 -4.0
25 3 -4.0
25 9 -4.0
26 3 -5.0
26 9 -6.0
27 9 -2.0
28 3 -8.0
28 9 -7.0
29 9 -2.0
30 3 -4.0
31 4 -4.0
31 10 -4.0
32 4 -5.0
32 10 -6.0
33 10 -2.0
34 4 -8.0
34 10 -7.0
35 10 -2.0
36 4 -4.0
37 5 -4.0
37 11 -4.0
38 5 -5.0
38 11 -6.0
39 11 -2.0
40 5 -8.0
40 11 -7.0
41 11 -2.0
42 5 -4.0
43 6 -4.0
43 12 -4.0
44 6 -5.0
44 12 -6.0
45 12 -2.0
46 6 -8.0
46 12 -7.0
47 12 -2.0
48 6 -4.0
1.79769313486232E+308 # value for infinity
0.0 # default left-hand-side value
36 # number of non-default left-hand-sides
49 -6016.0
50 -22272.0
51 -15744.0
52 -256.0
53 -10752.0
54 -6400.0
55 -4250.0
56 -3230.0
57 -1870.0
58 -84796.0
59 -884.0
60 -3332.0
61 -10080.0
62 -4914.0
63 -46242.0
64 -5418.0
65 -16506.0
66 -4284.0
67 -756.0
68 -9576.0
69 -8540.0
70 -11424.0
71 -3780.0
72 -5908.0
73 -50000.0
74 -351200.0
75 -14000.0
76 -3500.0
77 -15800.0
78 -7800.0
79 -4400.0
80 -5500.0
81 -8250.0
82 -3300.0
83 -4400.0
84 -3300.0
0.0 # default right-hand-side value
36 # number of non-default right-hand-sides
49 -6016.0
50 -22272.0
51 -15744.0
52 -256.0
53 -10752.0
54 -6400.0
55 -4250.0
56 -3230.0
57 -1870.0
58 -84796.0
59 -884.0
60 -3332.0
61 -10080.0
62 -4914.0
63 -46242.0
64 -5418.0
65 -16506.0
66 -4284.0
67 -756.0
68 -9576.0
69 -8540.0
70 -11424.0
71 -3780.0
72 -5908.0
73 -50000.0
74 -351200.0
75 -14000.0
76 -3500.0
77 -15800.0
78 -7800.0
79 -4400.0
80 -5500.0
81 -8250.0
82 -3300.0
83 -4400.0
84 -3300.0
0.0 # default variable lower bound value
0 # number of non-default variable lower bounds
100000.0 # default variable upper bound value
78 # number of non-default variable upper bounds
13 45.0
14 52.0
15 189.0
16 33.0
17 210.0
18 24.0
19 120.0
20 30.0
21 30.0
22 12234.0
23 98.0
24 656.0
25 142.0
26 420.0
27 200.0
28 13.0
29 637.0
30 24.0
31 20.0
32 25.0
33 15.0
34 25.0
35 454.0
36 256.0
37 350.0
38 48.0
39 260.0
40 21.0
41 278.0
42 12.0
43 20.0
44 50.0
45 100.0
46 30.0
47 70.0
48 20.0
49 139.0
50 400.0
51 435.0
52 37.0
53 378.0
54 124.0
55 245.0
56 125.0
57 85.0
58 14728.0
59 124.0
60 754.0
61 222.0
62 459.0
63 567.0
64 56.0
65 768.0
66 58.0
67 47.0
68 367.0
69 320.0
70 433.0
71 589.0
72 467.0
73 850.0
74 3560.0
75 400.0
76 56.0
77 436.0
78 90.0
79 100.0
80 150.0
81 250.0
82 90.0
83 150.0
84 80.0
85 64.0
92 34.0
99 126.0
106 28.0
113 100.0
120 55.0
0.0 # default variable primal value in starting point
0 # number of non-default variable primal values in starting point
0.0 # default constraint dual value in starting point
0 # number of non-default constraint dual values in starting point
0.0 # default variable bound dual value in starting point
0 # number of non-default variable bound dual values in starting point
0 # number of non-default variable names
0 # number of non-default constraint names
